Name:		mgval_0.40_7A
Optimal value:	271
#Vehicles:	3
Capacity:	200
Depot Node:	1
#Nodes:		40
#Edges:		36
#Arcs:		50
#Required N:	25
#Required E:	21
#Required A:	30

ReN.	DEMAND	S. COST
N2	15	15
N7	3	3
N8	9	9
N9	6	6
N11	10	10
N12	9	9
N15	13	13
N16	4	4
N17	6	6
N18	27	27
N19	12	12
N20	17	17
N21	6	6
N22	1	1
N25	2	2
N26	4	4
N27	15	15
N28	15	15
N30	5	5
N31	24	24
N32	8	8
N34	16	16
N36	6	6
N37	7	7
N38	5	5

ReE.	FROM N.	TO N.	T. COST	DEMAND	S. COST
E16	3	4	2	5	5
E17	38	39	7	9	9
E18	1	33	4	9	9
E19	17	18	5	8	8
E20	1	40	4	10	10
E21	1	10	8	12	12
E22	33	34	3	8	8
E23	8	40	5	8	8
E24	2	6	2	8	8
E25	27	34	3	9	9
E26	29	30	3	12	12
E27	13	18	2	5	5
E28	3	37	4	6	6
E29	5	39	2	6	6
E30	29	36	4	9	9
E31	14	15	4	7	7
E32	23	24	2	7	7
E33	6	7	4	7	7
E34	26	33	5	14	14
E35	12	17	4	8	8
E36	21	22	1	4	4

EDGE	FROM N.	TO N.	T. COST
NrE1	9	10	2
NrE2	21	24	3
NrE3	18	22	6
NrE4	11	16	3
NrE5	31	32	5
NrE6	15	16	3
NrE7	27	28	3
NrE8	31	37	5
NrE9	2	36	3
NrE10	28	35	10
NrE11	1	2	2
NrE12	34	35	6
NrE13	20	21	2
NrE14	7	13	1
NrE15	20	23	3

ReA.	FROM N.	TO N.	T. COST	DEMAND	S. COST
A21	12	6	2	2	2
A22	25	24	2	3	3
A23	2	3	5	4	4
A24	6	12	2	2	2
A25	17	13	2	3	3
A26	1	6	3	8	8
A27	24	25	2	2	2
A28	1	11	3	12	12
A29	5	4	3	4	4
A30	9	15	2	4	4
A31	3	2	5	5	5
A32	1	35	4	6	6
A33	8	9	5	6	6
A34	30	31	3	5	5
A35	13	12	6	4	4
A36	11	12	7	4	4
A37	9	8	5	6	6
A38	3	7	2	3	3
A39	4	5	3	3	3
A40	38	4	3	2	2
A41	26	34	5	8	8
A42	4	38	3	2	2
A43	36	35	6	7	7
A44	10	16	4	4	4
A45	35	36	6	7	7
A46	8	14	7	10	10
A47	38	37	2	4	4
A48	31	38	4	4	4
A49	35	1	4	6	6
A50	13	17	2	3	3

ARC	FROM N.	TO N.	T. COST
NrA1	34	26	5
NrA2	12	13	6
NrA3	31	30	3
NrA4	1	8	4
NrA5	36	37	4
NrA6	30	37	3
NrA7	26	27	4
NrA8	20	17	6
NrA9	15	9	2
NrA10	25	22	1
NrA11	17	20	6
NrA12	38	31	4
NrA13	12	11	7
NrA14	37	36	4
NrA15	19	13	6
NrA16	16	10	4
NrA17	32	39	2
NrA18	18	19	4
NrA19	22	25	1
NrA20	27	26	4
